Using license file /home/benedond/gurobi.lic
Using gurobi.env file
Set parameter Threads to value 1
Academic license - for non-commercial use only
Changed value of parameter TimeLimit to 300.0
   Prev: inf  Min: 0.0  Max: inf  Default: inf
Gurobi Optimizer version 9.0.1 build v9.0.1rc0 (linux64)
Optimize a model with 7843 rows, 7542 columns and 37074 nonzeros
Model fingerprint: 0xf7358907
Variable types: 120 continuous, 7422 integer (7422 binary)
Coefficient statistics:
  Matrix range     [2e-01, 5e+02]
  Objective range  [3e-03, 2e-01]
  Bounds range     [1e+00, 1e+00]
  RHS range        [1e+00, 2e+03]
Presolve removed 144 rows and 126 columns
Presolve time: 0.14s
Presolved: 7699 rows, 7416 columns, 36564 nonzeros
Variable types: 118 continuous, 7298 integer (7298 binary)

Root relaxation: objective 1.943066e+00, 7658 iterations, 0.52 seconds

    Nodes    |    Current Node    |     Objective Bounds      |     Work
 Expl Unexpl |  Obj  Depth IntInf | Incumbent    BestBd   Gap | It/Node Time

     0     0    1.94307    0  390          -    1.94307      -     -    0s
     0     0    2.01559    0  369          -    2.01559      -     -    1s
     0     0    2.02210    0  328          -    2.02210      -     -    1s
     0     0    2.15943    0  298          -    2.15943      -     -    1s
H    0     0                       3.0914980    2.15943  30.1%     -    4s
H    0     0                       3.0585388    2.15943  29.4%     -    6s
     0     0    2.16974    0  266    3.05854    2.16974  29.1%     -    6s
     0     0    2.17338    0  262    3.05854    2.17338  28.9%     -    6s
     0     0    2.17429    0  255    3.05854    2.17429  28.9%     -    6s
     0     0    2.17470    0  261    3.05854    2.17470  28.9%     -    6s
     0     0    2.17473    0  260    3.05854    2.17473  28.9%     -    6s
     0     0    2.20765    0  274    3.05854    2.20765  27.8%     -    7s
     0     0    2.23935    0  287    3.05854    2.23935  26.8%     -   10s
     0     0    2.24456    0  284    3.05854    2.24456  26.6%     -   10s
     0     0    2.24526    0  318    3.05854    2.24526  26.6%     -   10s
     0     0    2.24619    0  311    3.05854    2.24619  26.6%     -   10s
     0     0    2.24622    0  315    3.05854    2.24622  26.6%     -   10s
     0     0    2.26330    0  305    3.05854    2.26330  26.0%     -   11s
     0     0    2.27988    0  325    3.05854    2.27988  25.5%     -   14s
     0     0    2.28372    0  359    3.05854    2.28372  25.3%     -   14s
     0     0    2.28463    0  331    3.05854    2.28463  25.3%     -   15s
     0     0    2.28484    0  305    3.05854    2.28484  25.3%     -   15s
     0     0    2.28488    0  335    3.05854    2.28488  25.3%     -   15s
     0     0    2.29356    0  310    3.05854    2.29356  25.0%     -   15s
     0     0    2.29828    0  356    3.05854    2.29828  24.9%     -   18s
     0     0    2.29889    0  343    3.05854    2.29889  24.8%     -   18s
     0     0    2.29901    0  319    3.05854    2.29901  24.8%     -   19s
     0     0    2.30361    0  341    3.05854    2.30361  24.7%     -   19s
     0     0    2.30495    0  386    3.05854    2.30495  24.6%     -   19s
     0     0    2.30537    0  338    3.05854    2.30537  24.6%     -   19s
     0     0    2.30540    0  334    3.05854    2.30540  24.6%     -   19s
     0     0    2.31035    0  290    3.05854    2.31035  24.5%     -   19s
     0     0    2.31164    0  347    3.05854    2.31164  24.4%     -   23s
     0     0    2.31192    0  371    3.05854    2.31192  24.4%     -   23s
     0     0    2.31222    0  361    3.05854    2.31222  24.4%     -   24s
     0     0    2.31260    0  358    3.05854    2.31260  24.4%     -   24s
     0     0    2.31264    0  362    3.05854    2.31264  24.4%     -   24s
     0     0    2.31732    0  392    3.05854    2.31732  24.2%     -   24s
     0     0    2.31799    0  400    3.05854    2.31799  24.2%     -   24s
     0     0    2.31852    0  394    3.05854    2.31852  24.2%     -   24s
     0     0    2.31871    0  402    3.05854    2.31871  24.2%     -   24s
     0     0    2.32153    0  364    3.05854    2.32153  24.1%     -   24s
     0     0    2.32222    0  331    3.05854    2.32222  24.1%     -   24s
     0     0    2.32318    0  374    3.05854    2.32318  24.0%     -   25s
     0     0    2.32326    0  347    3.05854    2.32326  24.0%     -   25s
     0     0    2.32600    0  340    3.05854    2.32600  24.0%     -   25s
     0     0    2.32740    0  339    3.05854    2.32740  23.9%     -   25s
     0     0    2.32765    0  351    3.05854    2.32765  23.9%     -   25s
     0     0    2.32917    0  323    3.05854    2.32917  23.8%     -   25s
     0     0    2.32935    0  344    3.05854    2.32935  23.8%     -   29s
     0     0    2.33152    0  353    3.05854    2.33152  23.8%     -   29s
     0     0    2.33152    0  336    3.05854    2.33152  23.8%     -   33s
H    0     0                       3.0388735    2.33152  23.3%     -   39s
     0     2    2.33174    0  335    3.03887    2.33174  23.3%     -   44s
     2     4    2.33536    2  305    3.03887    2.33536  23.2%   606   45s
    11    13    2.44420    8  348    3.03887    2.33569  23.1%   826   50s
H   27    27                       3.0103715    2.33569  22.4%   626   65s
    49    51    2.38306   42  283    3.01037    2.33569  22.4%   545   70s
H   54    54                       3.0024368    2.33569  22.2%   574   78s
    64    66    2.41099   53  289    3.00244    2.33569  22.2%   578   80s
    85    87    2.50364   66  317    3.00244    2.33569  22.2%   649   85s
   125   127    2.71965   99  198    3.00244    2.33569  22.2%   590   90s
   196   195    2.81497  152  195    3.00244    2.33569  22.2%   533   95s
   395   369    2.98303  325   78    3.00244    2.33569  22.2%   316  100s
H  461   291                       2.8814327    2.33590  18.9%   307  110s
H  510   319                       2.8751877    2.33590  18.8%   304  119s
   511   320    2.69801   55  336    2.87519    2.33590  18.8%   303  122s
   514   322    2.77667  134  317    2.87519    2.33590  18.8%   301  127s
   516   323    2.83137  168  333    2.87519    2.33590  18.8%   300  133s
   518   325    2.74069   74  303    2.87519    2.33590  18.8%   299  137s
   522   327    2.59460   90  329    2.87519    2.35605  18.1%   297  143s
   524   329    2.72542   63  380    2.87519    2.37063  17.5%   296  145s
   526   330    2.84077  182  329    2.87519    2.38160  17.2%   295  151s
   528   331    2.62170   75  369    2.87519    2.38944  16.9%   293  164s
   529   332    2.39059   14  350    2.87519    2.39059  16.9%   293  165s
   537   337    2.83609  175  417    2.87519    2.41182  16.1%   289  170s
   544   342    2.84006  181  413    2.87519    2.42000  15.8%   285  175s
   552   347    2.85005  190  464    2.87519    2.42893  15.5%   281  180s
   560   353    2.82256  157  453    2.87519    2.43583  15.3%   277  185s
   567   357    2.65364   25  480    2.87519    2.44042  15.1%   273  190s
   574   362    2.54739   55  487    2.87519    2.44565  14.9%   270  195s
   581   367    2.74509   83  495    2.87519    2.44900  14.8%   267  200s
   589   372    2.69086   47  499    2.87519    2.45180  14.7%   263  205s
   596   377    2.82041  155  466    2.87519    2.45352  14.7%   260  210s
   604   382    2.76293  140  380    2.87519    2.45564  14.6%   257  215s
   610   386    2.45709    1  494    2.87519    2.45709  14.5%   254  220s
   617   391    2.45865   23  421    2.87519    2.45865  14.5%   251  225s
   624   395    2.72542   63  432    2.87519    2.45988  14.4%   248  230s
   630   399    2.62642   84  559    2.87519    2.46197  14.4%   246  235s
   636   403    2.81167  150  546    2.87519    2.46408  14.3%   244  240s
   642   407    2.46612   11  574    2.87519    2.46612  14.2%   241  245s
   650   413    2.63100  109  563    2.87519    2.46861  14.1%   238  250s
   655   416    2.74069   74  538    2.87519    2.47104  14.1%   237  255s
   662   421    2.73880   70  484    2.87519    2.47315  14.0%   234  260s
   668   425    2.47499    2  460    2.87519    2.47499  13.9%   232  265s
   674   429    2.54739   55  545    2.87519    2.47710  13.8%   230  270s
   680   433    2.50525   61  528    2.87519    2.48088  13.7%   228  275s
   687   437    2.48383    5  484    2.87519    2.48383  13.6%   226  280s
   695   443    2.51156   71  478    2.87519    2.48633  13.5%   223  285s
   702   447    2.48862    4  590    2.87519    2.48862  13.4%   221  290s
   709   452    2.49072   27  541    2.87519    2.49072  13.4%   219  295s

Cutting planes:
  Gomory: 7
  Cover: 4
  Implied bound: 1
  Clique: 3
  MIR: 102
  StrongCG: 6
  Flow cover: 280
  GUB cover: 1
  RLT: 1
  Relax-and-lift: 51

Explored 715 nodes (410525 simplex iterations) in 300.01 seconds
Thread count was 1 (of 4 available processors)

Solution count 7: 2.87519 2.88143 3.00244 ... 3.0915

Time limit reached
Best objective 2.875187747921e+00, best bound 2.491359175946e+00, gap 13.3497%
